(declare-datatype optionInt ((SomeInt (@0SomeInt Int)) (NoneInt )))

(declare-datatype ResponseCode ((ResponseOk ) (ResponseError )))

(declare-datatype URL ((Build_URL (proto Int) (host Int) (path Int))))

(declare-datatype Response
 ((Build_Response (rp_url URL) (rp_code ResponseCode) (rp_content optionInt))))

(declare-datatype optionResponse
 ((SomeResponse (@0SomeResponse Response)) (NoneResponse )))

(declare-datatype Request ((Build_Request (rq_url URL) (rq_body optionInt))))

(declare-datatype State
 ((Build_State
   (st_version Int) (st_req Request) (st_rep optionResponse)
   (st_dom optionInt))))

(declare-datatype Event
 ((EvInit ) (EvRequest (@0EvRequest Request))
  (EvResponse (@0EvResponse Response)) (EvDOMUpdate (@0EvDOMUpdate Int))))

(declare-datatype listEvent
 ((nilEvent ) (consEvent (@0consEvent Event) (@1consEvent listEvent))))

(declare-rel Reachable (listEvent State))

(define-fun initial_state () State
 (Build_State 0 (Build_Request (Build_URL 0 0 0) NoneInt) NoneResponse
  NoneInt))

(rule (Reachable nilEvent initial_state) Initial_state_is_reachable)

(declare-var Request<1> Request)

(declare-var Int<0> Int)

(declare-var listEvent<0> listEvent)

(declare-var Request<0> Request)

(declare-var optionInt<0> optionInt)

(declare-var optionResponse<0> optionResponse)

(rule
 (=>
  (Reachable listEvent<0>
   (Build_State Int<0> Request<0> optionResponse<0> optionInt<0>))
  (Reachable (consEvent (EvRequest Request<1>) listEvent<0>)
   (Build_State (+ Int<0> 1) Request<1> NoneResponse optionInt<0>)))
 Event_Request)

(declare-var Response<0> Response)

(rule
 (=>
  (and
   (Reachable listEvent<0>
    (Build_State Int<0> Request<0> optionResponse<0> optionInt<0>))
   (= optionResponse<0> NoneResponse)
   (= (rp_url Response<0>) (rq_url Request<0>)))
  (Reachable (consEvent (EvResponse Response<0>) listEvent<0>)
   (Build_State (+ Int<0> 1) Request<0> (SomeResponse Response<0>)
    optionInt<0>))) Event_Response)

(declare-var Int<1> Int)

(rule
 (=>
  (and
   (Reachable listEvent<0>
    (Build_State Int<0> Request<0> optionResponse<0> optionInt<0>))
   (match optionResponse<0>
    (((SomeResponse Response<0>)
      (and (= (rp_code Response<0>) ResponseOk)
       (match (rp_content Response<0>)
        (((SomeInt Int<2>) (= Int<1> Int<2>)) (NoneInt false)))))
     (NoneResponse false))))
  (Reachable (consEvent (EvDOMUpdate Int<1>) listEvent<0>)
   (Build_State (+ Int<0> 1) Request<0> optionResponse<0> (SomeInt Int<1>))))
 Event_Dom_Update)

(declare-var State<0> State)

(declare-rel DOMQuery (listEvent State))

(rule
 (=>
  (and (Reachable listEvent<0> State<0>)
   (= (st_rep State<0>) (SomeResponse Response<0>))
   (not (= (host (rp_url Response<0>)) 0))
   (= (st_dom State<0>) (SomeInt Int<0>))
   (= (rp_content Response<0>) (SomeInt Int<0>))
   (= (st_version State<0>) 3))
  (DOMQuery listEvent<0> State<0>)) Query_state)

(query DOMQuery)

